p cnf 25 60
a 20 21 0
e 1 2 3 4 5 6 7 8 9 10 11 12 13 14 15 16 17 18 19 22 23 24 25 0
-2 -1 0
-2 1 0
-3 -4 -5 0
3 4 -5 0
-3 4 5 0
3 -4 5 0
6 7 0
-6 7 0
-4 7 -8 0
4 -7 -8 0
-4 -7 8 0
4 7 8 0
10 9 0
10 -7 0
-9 7 -10 0
11 8 0
11 -10 0
-8 10 -11 0
-13 -7 0
-13 -12 0
7 12 13 0
14 9 0
14 -13 0
-9 13 -14 0
15 11 0
15 14 0
-11 -14 -15 0
16 5 0
16 -15 0
-5 15 -16 0
-17 2 0
-17 -16 0
-2 16 17 0
18 -9 0
18 12 0
9 -12 -18 0
18 1 -19 0
-18 -1 -19 0
18 -1 19 0
-18 1 19 0
20 1 -21 0
-20 -1 -21 0
20 -1 21 0
-20 1 21 0
23 -21 0
23 -22 0
21 22 -23 0
19 -23 -24 0
-19 23 -24 0
19 23 24 0
-19 -23 24 0
-25 -17 0
-25 24 0
17 -24 25 0
3 7 17 0
6 -19 21 7 -25 0
2 18 -8 -7 3 -25 0
-17 3 -10 -20 -23 5 0
-24 4 13 -8 0
25 0
